units               real    
dimension           3   
newton              off 
boundary            p p f 
atom_style          full 

pair_style          lj/cut/coul/long 4.0
bond_style          harmonic
angle_style         harmonic
kspace_style        pppm 1.0e-6
kspace_modify       slab 3.0

##atom definition
read_data           one_datafile
pair_coeff   1   1         0.09935850       3.40000000  # CAB CAB
pair_coeff   1   2         0.19419428       3.50000000  # CAB CAC
pair_coeff   1   3         0.07390356       3.38500000  # CAB CG
pair_coeff   1   4         0.09935850       3.35000000  # CAB NAA
pair_coeff   2   2         0.37954900       3.60000000  # CAC CAC
pair_coeff   2   3         0.14444310       3.48500000  # CAC CG
pair_coeff   2   4         0.19419428       3.45000000  # CAC NAA
pair_coeff   3   3         0.05497000       3.37000000  # CG CG
pair_coeff   3   4         0.07390356       3.33500000  # CG NAA
pair_coeff   4   4         0.09935850       3.30000000  # NAA NAA
##atom definition
replicate 1 1 2
variable lenz equal lz
change_box all z final -$(lz/2) $(lz/2) remap units box
set mol 163 mol 82
set mol 164 mol 81
write_data example_datafile
