#processors * * 2
    newton     off
    units      real
    atom_style full
    bond_style harmonic
    angle_style harmonic
    pair_style lj/cut/coul/long 16.0
    kspace_style pppm 1e-7
    pair_modify mix arithmetic
boundary p p f 

read_data example_il_datafile
reset_timestep 0
kspace_modify slab 3.0

# group defs
group sol type 1:4
group ele type 5
group bmi type 1:3
group pf6 type 4
group eleleft molecule 641
group eleright molecule 642
atom_modify first sol

velocity ele set 0.0 0.0 0.0
fix freeze ele setforce 0.0 0.0 0.0
set group eleleft charge 0.0
set group eleright charge 0.0

variable q   atom  q
variable qz  atom q*z
compute qleft eleleft reduce sum v_q
compute qright eleright reduce sum v_q
compute dipole sol reduce sum v_qz
compute tempsl sol temp

fix constpot all conp 1 1.979 641 642 -0.0 0.0 inv iter org amatrix_nosmartlist
fix bmishake bmi shake 0.0001 10 0 t 1 2 3 b 1 2 a 1

timestep 2.0
fix NVT sol nvt temp 400. 400. 100

thermo_style custom step temp c_tempsl epair etotal c_dipole c_qleft c_qright f_constpot
thermo 1

variable nsteps equal 50

run ${nsteps} upto
