variable n getenv "N"
log log.lammps_$n

# trial numbers:
# 0 = conp/v0
# 1 = conp/v1
# 2 = conp/v2
# 3 = conp/v3
# 4 = conp/v4
# 5 = conp/v4 etypes
# 6 = conp/v4 etypes noslab zneutr
# 7 = conp/v4 etypes ffield

units               real    
dimension           3   
newton              off 
#processors          * * 2
if "$n <= 5" then "boundary p p f" else "boundary p p p"
atom_style          full 

##force field
pair_style          lj/cut/coul/long 4.0
bond_style          harmonic
angle_style         harmonic
kspace_style        pppm 1.0e-6
if "$n <= 5" then "kspace_modify slab 3.0"
#you can try forcing kspace mesh same xy resolution
#to eliminate spurious differences
#but fix/conp's own internal k meshing isn't controlled :(
#resolutions determined by first running:
#if "$n <= 5" then "kspace_modify mesh 30 27 324 slab 3.0" &
#elif "$n == 6" "kspace_modify mesh 30 27 144" &
#elif "$n == 7" "kspace_modify mesh 30 27 250"

##atom definition
read_data           data
pair_coeff   1   1         0.09935850       3.40000000  # CAB CAB
pair_coeff   1   2         0.19419428       3.50000000  # CAB CAC
pair_coeff   1   3         0.07390356       3.38500000  # CAB CG
pair_coeff   1   4         0.09935850       3.35000000  # CAB NAA
pair_coeff   2   2         0.37954900       3.60000000  # CAC CAC
pair_coeff   2   3         0.14444310       3.48500000  # CAC CG
pair_coeff   2   4         0.19419428       3.45000000  # CAC NAA
pair_coeff   3   3         0.05497000       3.37000000  # CG CG
pair_coeff   3   4         0.07390356       3.33500000  # CG NAA
pair_coeff   4   4         0.09935850       3.30000000  # NAA NAA

##replicate cell if noslab zneutr
if "$n == 6" then &
"replicate 1 1 2" &
"change_box all z final $(-lz/2) $(lz/2) remap units box" &
"region pos block EDGE EDGE EDGE EDGE 0 EDGE" &
"group pos region pos" &
"variable newz atom lz/2-z" &
"set group pos z v_newz" &
"variable molmax   equal 82" &
"variable molleft  equal 81" &
"variable molright equal 82" &
"set mol $(v_molmax+v_molright) mol ${molright}" &
"set mol $(v_molmax+v_molleft)  mol ${molleft}"

##setting
neighbor            2 bin
group sol type 1 2 4
variable q atom q
group ele           type 3
group eleleft       molecule 81
group eleright      molecule 82
if "$n != 6" then &
"group eleall        union eleleft eleright" &
"compute qleft       eleleft  reduce sum v_q" &
"compute qright      eleright reduce sum v_q" &
"compute qall        eleall   reduce sum v_q" &
"compute tempsl      sol      temp" &
elif "$n == 6" &
"group solpos  intersect sol   pos" &
"group solneg  subtract  sol   solpos" &
"group elepos  intersect ele   pos" &
"group eleneg  subtract  ele   elepos" &
"group eleleftpos  intersect eleleft   pos" &
"group elerightpos intersect eleright  pos" &
"group eleleftneg  subtract  eleleft   eleleftpos" &
"group elerightneg subtract  eleright  elerightpos" &
"compute qleftpos       eleleftpos  reduce sum v_q" &
"compute qleftneg       eleleftneg  reduce sum v_q" &
"compute qrightpos      elerightpos reduce sum v_q" &
"compute qrightneg      elerightneg reduce sum v_q" &
"compute qpos           elepos      reduce sum v_q" &
"compute qneg           eleneg      reduce sum v_q" &
"compute temppos   solpos temp" &
"compute tempneg   solneg temp"


run_style           verlet
timestep            1  
velocity ele set 0.0 0.0 0.0
fix 0 ele setforce 0.0 0.0 0.0

if "$n == 0" then &
"fix e all conp/v0 1 1.979 81 82 -0.5 0.5 inv iter" &
elif "$n == 1"  &
"fix e all conp/v1 1 1.979 81 82 -0.5 0.5 inv iter" &
elif "$n == 2"  &
"fix e all conp/v2 1 1.979 81 82 -0.5 0.5 inv iter" &
elif "$n == 3"  &
"fix e all conp/v3 1 1.979 81 82 -0.5 0.5 inv iter" &
elif "$n == 4"  &
"fix e all conp/v4 1 1.979 81 82 -0.5 0.5 inv iter" &
elif "$n == 5"  &
"fix e all conp/v4 1 1.979 81 82 -0.5 0.5 inv iter etypes 1 3" &
elif "$n == 6"  &
"fix e all conp/v4 1 1.979 81 82 -0.5 0.5 inv iter etypes 1 3 noslab zneutr" &
elif "$n == 7"  &
"fix e all conp/v4 1 1.979 81 82 -0.5 0.5 inv iter etypes 1 3 ffield" &
"fix efield all efield 0 0 $(-1.0/lz) " &
elif "$n == 8"  &
"fix e all conp/v4 1 1.979 81 82 -0.5 0.5 inv iter etypes 1 3 ffield" &
"fix efield all efield 0 0 $(-1.0/lz) "


fix 1 sol nvt temp 298.0 298.0 100.0
if "$n != 6" then &
"thermo_style custom step temp c_tempsl c_qleft c_qright c_qall" &
elif "$n == 6" &
"thermo_style custom step temp c_temppos c_qleftneg c_qrightneg c_qneg c_qrightpos c_qleftpos c_qpos c_tempneg"
thermo              20

if "$n == 7" then "dump dsol sol atom 20 sol.traj"

if "$n <= 7" then "run 500" &
elif "$n == 8" "rerun sol.traj dump x y z"

