log log.lammps_rerun

variable gew equal 0.35

units               real    
dimension           3   
#newton off
processors * * 2
boundary p p f
atom_style          full 
log log.lammps_rerun_${gew}

##force field
pair_style          lj/cut/coul/long 16.0
pair_modify         mix arithmetic
bond_style          harmonic
angle_style         harmonic
kspace_style        pppm/conp 1e-8
kspace_modify       gewald ${gew} slab 3.0
#kspace_modify slab 3.0

##atom definition
read_data           data

variable molmax   equal 646
variable molleft  equal 641
variable molright equal 642

neigh_modify one 3000
group sol type 1:4
variable q atom q
variable etype equal 5
group ele           type ${etype}
group eleleft       molecule ${molleft}
group eleright      molecule ${molright}
compute qleft       eleleft  reduce sum v_q
compute qright      eleright reduce sum v_q
compute tempsl      sol      temp

variable eta equal 1.979

# computing electrode atom potentials:
compute potele      ele      potential/atom eta ${eta} ${molleft} ${molright}

# calling potentials on individual electrode atoms:
variable pot1  equal    c_potele[1698]
variable pot2  equal    c_potele[2837]
variable potd  equal    v_pot2-v_pot1

# dumping potentials on all electrode atoms:
dump potele ele custom 1 potele.traj id x y z c_potele

# if dump only contains solvent atoms, use this to dynamically re-generate electrode charges:
# variable v equal 1.0
# fix e all conp 1 1.979 ${molleft} ${molright} -$v $v inv iter etypes 1 ${etype} pppm

# adding probes:
variable total_n_atoms equal count(all)
variable old_n_atoms equal $(v_total_n_atoms)
create_atoms 5 single $(lx/2) $(ly/2) 0  # use create_atoms region to make more probes
create_atoms 5 single $(lx/2+0.01) $(ly/2) 0  # use create_atoms region to make more probes
create_atoms 5 single $(lx/2) $(ly/2+0.01) 0  # use create_atoms region to make more probes
create_atoms 5 single $(lx/2+0.01) $(ly/2+0.01) 0  # use create_atoms region to make more probes
group probes id $(v_old_n_atoms+1):$(v_total_n_atoms)

# getting average probe potential:
compute potprobe  probes potential/atom eta ${eta} ${molleft} ${molright}
compute potprobe_mean probes reduce ave c_potprobe
fix fpotprobe  probes ave/time 1 1 1 c_potprobe_mean

# dumping potentials on all probe atoms:
dump potprobe probes custom 1 potprobe.traj id x y z c_potprobe

thermo_style custom step v_pot1 v_pot2 v_potd f_fpotprobe
thermo 1

rerun sol2.traj dump x y z q
