variable n getenv "N"
log log.lammps_$n

# trial numbers:
# 0 = conp slab etypes pppm
# 1 = conq slab etypes pppm
# 2 = conp ffield etypes pppm
# 3 = conq ffield etypes pppm
# 4 = cond ffield etypes pppm

units               real    
dimension           3   
newton off
processors          * * 2
if "$n <= 1" then "boundary p p f" else "boundary p p p"
atom_style          full 

##force field
pair_style          lj/cut/coul/long 16.0
pair_modify         mix arithmetic
bond_style          harmonic
angle_style         harmonic
kspace_style        pppm/conp 1.0e-7
if "$n <= 1" then "kspace_modify slab 3.0"

##atom definition
read_data           data

variable molmax   equal 646
variable molleft  equal 641
variable molright equal 642

##setting
#neighbor            2 bin
neigh_modify one 3000
group sol type 1:4
variable q atom q
variable qz atom q*z
variable etype equal 5
group ele           type ${etype}
group eleleft       molecule ${molleft}
group eleright      molecule ${molright}
group eleall        union eleleft eleright
compute qleft       eleleft  reduce sum v_q
compute qright      eleright reduce sum v_q
compute tempsl      sol      temp
compute dipole      sol      reduce sum v_qz

run_style           verlet
timestep            2
velocity ele set 0.0 0.0 0.0
#fix 0 ele setforce 0.0 0.0 0.0
variable v equal 2.0
variable Q equal 0.35

if "$n == 0" then &
"fix e eleleft conp 1 eleright 1.979 $v iter etypes 1 ${etype} pppm" &
elif "$n == 1"  &
"fix e eleleft conq 1 eleright 1.979 $Q iter etypes 1 ${etype} pppm" &
elif "$n == 2"  &
"fix e eleleft conp 1 eleright 1.979 $v iter etypes 1 ${etype} ffield pppm" &
"fix efield all efield 0 0 $(-v_v/lz) " &
elif "$n == 3"  &
"fix e eleleft conq 1 eleright 1.979 $Q iter etypes 1 ${etype} ffield pppm" &
elif "$n == 4" &
"fix e eleleft cond 1 eleright 1.979 $Q iter etypes 1 ${etype} ffield pppm" &

if "$n == 3 || $n == 4" then &
"variable efi equal -f_e/lz" &
"fix efi all efield 0.0 0.0 v_efi"

#"fix e eleleft conp 1 eleright 1.979 $v iter etypes 1 ${etype} pppm ffield" &

variable t equal 500
group bmi type 1:3
fix bmishake bmi shake 0.0001 10 0 t 1 2 3 b 1 2 a 1

fix 1 sol nvt temp $t $t 100.0
thermo_style custom step temp c_tempsl c_qleft c_qright c_dipole f_e  
thermo              20
run 100
run 100
